100
32
9
4
14
30
12
16
11
19
30
20
17
31
19
21
11
4
8
7
16
1
12
23
2
27
12
18
30
23
5
2
5
13
18
18
11
20
16
28
9
24
25
3
32
22
5
15
17
22
1
4
18
7
27
31
3
2
1
25
17
18
26
23
26
27
9
20
30
13
4
26
21
30
32
11
6
2
9
21
18
32
7
6
9
1
18
19
28
21
32
2
32
21
22
8
18
5
10
25
2
18